52
42 32 365
32 50 475
50 10 285
10 51 399
51 13 319
13 12 206
12 46 324
46 25 186
25 26 126
26 27 110
27 11 182
11 24 245
24 45 173
45 15 156
15 28 201
28 29 260
29 52 436
52 1 150
1 6 45
6 41 76
41 20 290
20 16 253
16 2 217
2 40 247
40 8 239
8 9 83
9 7 180
7 18 126
18 44 75
44 31 151
31 48 50
48 21 94
21 17 116
17 30 80
30 22 152
22 19 94
19 49 35
49 43 175
43 33 80
33 34 21
34 35 15
35 38 43
38 39 43
39 36 41
36 37 43
37 47 49
47 23 16
23 4 32
4 14 25
14 5 40
5 3 70
3 42 245

